# Problem from Gecode/examples/minesweeper.cc  problem 0

param r := 6;
param c := 6;

param game: 1 2 3 4 5 6 :=
    1 . . 2 . 3 . 
    2 2 . . . . . 
    3 . . 2 4 . 3 
    4 1 . 3 4 . . 
    5 . . . . . 3 
    6 . 3 . 3 . .
;



